(declare-fun bvlambda_28_ ()Bool         )
(declare-fun a131 () (Array (_ BitVec 1) (_ BitVec 15)))
(assert
(let (($e28 (_ bv0 14)))
(let (($e179 (concat $e28 true        )))
(let (($e187 (concat $e28 false )))
(let (($e188 (store a131 true        $e187)))
(let (($e189 (store $e188        bvlambda_28_ $e179)))
(let (($e190 (select $e189 true       )))
                  (=        $e179 $e190)
                                                                                                                                                                                                                                                                                                                                                                                                                                                                                                                                                                                                                                                                                                                                                                                                                                                                                                                                                                                                                                                                                                                                                                                                                                                                                                                                                                                                                                                                                                                                                                                                                                                                                                                                                                                                                                                                                                                                                                                                                                                                                                                                                                                                                                                                                                                                                                                                                                                                                                                                                                                                                                                                                                                                                                                                                                                                                                                                                                                                                                                                                                                                                                                             ))))       )                                                                                                )                           )
